200
120
100
100
100
100
99
99
99
98
98
98
98
98
97
97
97
96
96
95
94
94
94
94
94
93
93
92
91
91
90
90
90
90
89
89
88
88
88
88
88
87
87
87
86
85
85
85
85
85
85
85
83
83
82
82
82
82
81
81
81
80
80
80
79
78
77
77
77
76
76
76
75
75
74
74
74
74
73
73
73
72
72
71
71
71
71
69
69
69
68
68
67
67
66
66
66
65
65
64
64
64
64
64
64
64
63
62
62
61
61
61
61
60
60
60
60
60
60
59
58
58
57
57
57
57
56
56
55
55
54
54
53
53
53
53
53
52
52
52
52
52
52
50
49
48
48
48
48
48
47
47
47
47
47
47
47
47
46
46
45
44
44
44
44
42
42
42
42
42
41
41
41
40
40
39
38
38
37
37
37
37
37
37
36
35
35
35
35
35
34
34
33
33
32
32
31
31
31
30
30
30
